nN = 7;
nR = 15;
nH = 1;

a = [[24, 13, 18, 15, 25, 22, 18, 22, 9, 21, 17, 18, 20, 10, 13], [20, 5, 22, 24, 11, 17, 9, 16, 17, 24, 14, 6, 25, 24, 14], [21, 19, 19, 19, 14, 24, 5, 17, 24, 22, 21, 7, 18, 20, 6], [5, 10, 24, 10, 17, 8, 13, 13, 24, 14, 17, 6, 20, 24, 17], [6, 21, 15, 17, 23, 24, 7, 8, 19, 6, 24, 10, 25, 15, 11], [10, 10, 19, 20, 25, 7, 16, 13, 6, 18, 21, 5, 14, 22, 8], [5, 6, 15, 23, 21, 19, 9, 14, 10, 10, 24, 10, 22, 10, 22]];
c = [[[0, 0, 0, 0, 0, 0, 0, 0, 0, 0, 0, 0, 0, 0, 0], [44, 49, 31, 46, 35, 40, 45, 41, 34, 33, 38, 46, 34, 33, 49], [35, 49, 42, 41, 40, 33, 49, 48, 44, 49, 30, 49, 41, 47, 43], [35, 33, 42, 46, 37, 41, 42, 45, 31, 34, 44, 36, 47, 35, 41], [48, 36, 37, 34, 49, 42, 33, 40, 46, 39, 42, 32, 35, 45, 48], [44, 34, 47, 35, 33, 38, 37, 33, 46, 32, 47, 40, 45, 31, 49], [50, 42, 34, 35, 33, 40, 47, 30, 39, 41, 43, 41, 46, 32, 30]], [[0, 0, 0, 0, 0, 0, 0, 0, 0, 0, 0, 0, 0, 0, 0], [0, 0, 0, 0, 0, 0, 0, 0, 0, 0, 0, 0, 0, 0, 0], [30, 36, 33, 45, 33, 49, 39, 45, 38, 33, 41, 49, 43, 46, 47], [47, 37, 40, 36, 37, 39, 46, 35, 49, 38, 33, 48, 47, 38, 49], [41, 39, 45, 42, 38, 33, 43, 47, 30, 48, 49, 48, 46, 46, 48], [50, 33, 45, 43, 36, 37, 42, 40, 48, 48, 47, 44, 33, 47, 48], [34, 46, 45, 46, 42, 37, 41, 41, 49, 37, 46, 32, 37, 42, 39]], [[0, 0, 0, 0, 0, 0, 0, 0, 0, 0, 0, 0, 0, 0, 0], [0, 0, 0, 0, 0, 0, 0, 0, 0, 0, 0, 0, 0, 0, 0], [0, 0, 0, 0, 0, 0, 0, 0, 0, 0, 0, 0, 0, 0, 0], [32, 30, 49, 46, 43, 50, 35, 36, 36, 41, 43, 45, 44, 34, 50], [32, 43, 45, 42, 31, 39, 42, 30, 44, 31, 35, 37, 44, 44, 49], [34, 39, 46, 46, 33, 30, 50, 36, 50, 48, 39, 49, 32, 33, 32], [42, 35, 48, 30, 44, 37, 43, 37, 50, 35, 33, 31, 32, 33, 35]], [[0, 0, 0, 0, 0, 0, 0, 0, 0, 0, 0, 0, 0, 0, 0], [0, 0, 0, 0, 0, 0, 0, 0, 0, 0, 0, 0, 0, 0, 0], [0, 0, 0, 0, 0, 0, 0, 0, 0, 0, 0, 0, 0, 0, 0], [0, 0, 0, 0, 0, 0, 0, 0, 0, 0, 0, 0, 0, 0, 0], [50, 34, 31, 32, 35, 46, 36, 42, 49, 45, 47, 41, 30, 45, 49], [36, 33, 34, 48, 46, 43, 37, 31, 36, 47, 33, 47, 36, 34, 39], [32, 42, 50, 33, 44, 37, 37, 42, 33, 35, 33, 34, 50, 40, 31]], [[0, 0, 0, 0, 0, 0, 0, 0, 0, 0, 0, 0, 0, 0, 0], [0, 0, 0, 0, 0, 0, 0, 0, 0, 0, 0, 0, 0, 0, 0], [0, 0, 0, 0, 0, 0, 0, 0, 0, 0, 0, 0, 0, 0, 0], [0, 0, 0, 0, 0, 0, 0, 0, 0, 0, 0, 0, 0, 0, 0], [0, 0, 0, 0, 0, 0, 0, 0, 0, 0, 0, 0, 0, 0, 0], [31, 44, 32, 34, 38, 47, 43, 36, 46, 39, 30, 32, 45, 37, 37], [49, 34, 48, 30, 49, 34, 41, 43, 34, 41, 47, 36, 48, 46, 31]], [[0, 0, 0, 0, 0, 0, 0, 0, 0, 0, 0, 0, 0, 0, 0], [0, 0, 0, 0, 0, 0, 0, 0, 0, 0, 0, 0, 0, 0, 0], [0, 0, 0, 0, 0, 0, 0, 0, 0, 0, 0, 0, 0, 0, 0], [0, 0, 0, 0, 0, 0, 0, 0, 0, 0, 0, 0, 0, 0, 0], [0, 0, 0, 0, 0, 0, 0, 0, 0, 0, 0, 0, 0, 0, 0], [0, 0, 0, 0, 0, 0, 0, 0, 0, 0, 0, 0, 0, 0, 0], [41, 49, 33, 46, 35, 42, 42, 43, 42, 45, 39, 46, 46, 50, 38]], [[0, 0, 0, 0, 0, 0, 0, 0, 0, 0, 0, 0, 0, 0, 0], [0, 0, 0, 0, 0, 0, 0, 0, 0, 0, 0, 0, 0, 0, 0], [0, 0, 0, 0, 0, 0, 0, 0, 0, 0, 0, 0, 0, 0, 0], [0, 0, 0, 0, 0, 0, 0, 0, 0, 0, 0, 0, 0, 0, 0], [0, 0, 0, 0, 0, 0, 0, 0, 0, 0, 0, 0, 0, 0, 0], [0, 0, 0, 0, 0, 0, 0, 0, 0, 0, 0, 0, 0, 0, 0], [0, 0, 0, 0, 0, 0, 0, 0, 0, 0, 0, 0, 0, 0, 0]]];
Q = [[27], [28], [26], [27], [25], [25], [32]];

q = [[[19], [11], [7], [17], [12], [12], [20], [10], [19], [19], [6], [23], [23], [14], [16]], [[21], [11], [21], [16], [18], [25], [19], [15], [23], [6], [22], [14], [19], [6], [6]], [[24], [18], [5], [15], [22], [19], [25], [9], [6], [5], [6], [19], [14], [14], [21]], [[19], [16], [10], [7], [19], [21], [14], [11], [9], [17], [10], [24], [20], [20], [15]], [[13], [8], [17], [13], [15], [14], [6], [11], [5], [22], [20], [18], [18], [13], [22]], [[15], [22], [21], [9], [11], [9], [20], [13], [22], [7], [16], [6], [13], [22], [11]], [[25], [25], [14], [6], [20], [25], [15], [25], [14], [16], [20], [20], [18], [19], [17]]];
p = [0.95, 0.24, 0.58, 0.61, 0.07, 0.2, 0.01, 0.8, 0.19, 0.19, 0.43, 0.01, 0.72, 0.4, 0.01];
